c File: flat1000_60_0.col
c
c SOURCE: Joseph Culberson (joe@cs.ualberta.ca)
c DESCRIPTION: Quasi-random coloring problem
c              generated with flatness = 0
c                             probability = 0.500
c                             known coloring = 60
c                             random seed = 58009135
c              Creation Date:  Wed Oct 12 10:33:16 1994
c Maximum degree = 524 Minimum degree = 457
c COLOR VERIFICATION: Using the permuted order
c under simple greedy yields the specified
c coloring number
c Color = 60 specified partitions = 60
p edge 1000 245830
e 3 2
e 5 1
e 5 3
e 5 4
e 6 3
e 6 4
e 7 3
e 7 4
e 7 5
e 8 2
e 9 2
e 9 3
e 9 4
e 9 6
e 10 3
e 10 5
e 10 7
e 10 9
e 11 2
e 11 3
e 11 4
e 11 5
e 11 7
e 11 8
e 12 1
e 12 2
e 12 3
e 12 4
e 12 5
e 12 8
e 12 10
e 13 3
e 13 4
e 13 5
e 13 6
e 13 7
e 13 10
e 13 12
e 14 2
e 14 3
e 14 6
e 14 7
e 14 9
e 14 12
e 15 6
e 15 7
e 15 8
e 15 12
e 15 13
e 16 1
e 16 4
e 16 5
e 16 10
e 16 13
e 17 1
e 17 3
e 17 8
e 17 11
e 17 15
e 18 4
e 18 8
e 18 15
e 19 3
e 19 5
e 19 6
e 19 9
e 19 10
e 19 11
e 19 12
e 19 14
e 19 18
e 20 2
e 20 8
e 20 11
e 20 12
e 20 13
e 20 18
e 21 2
e 21 3
e 21 5
e 21 6
e 21 7
e 21 9
e 21 10
e 21 11
e 21 12
e 21 13
e 21 14
e 21 15
e 21 16
e 21 17
e 21 20
e 22 2
e 22 4
e 22 5
e 22 6
e 22 7
e 22 8
e 22 9
e 22 11
e 22 12
e 22 15
e 22 16
e 22 17
e 22 18
e 22 19
e 22 20
e 22 21
e 23 3
e 23 4
e 23 6
e 23 8
e 23 9
e 23 11
e 23 12
e 23 13
e 23 14
e 23 16
e 23 17
e 23 18
e 23 20
e 24 1
e 24 4
e 24 5
e 24 8
e 24 9
e 24 11
e 24 12
e 24 13
e 24 15
e 24 16
e 24 17
e 24 19
e 24 21
e 24 23
e 25 1
e 25 5
e 25 7
e 25 10
e 25 11
e 25 12
e 25 14
e 25 16
e 25 18
e 25 19
e 25 22
e 25 23
e 25 24
e 26 1
e 26 2
e 26 4
e 26 8
e 26 13
e 26 14
e 26 15
e 26 16
e 26 19
e 26 22
e 26 24
e 27 1
e 27 2
e 27 3
e 27 4
e 27 9
e 27 10
e 27 12
e 27 13
e 27 14
e 27 15
e 27 19
e 27 21
e 27 23
e 27 24
e 27 25
e 27 26
e 28 5
e 28 12
e 28 14
e 28 16
e 28 19
e 28 21
e 28 22
e 28 25
e 28 26
e 28 27
e 29 1
e 29 2
e 29 3
e 29 4
e 29 5
e 29 6
e 29 7
e 29 8
e 29 10
e 29 11
e 29 15
e 29 17
e 29 20
e 29 22
e 29 24
e 29 26
e 29 27
e 30 2
e 30 4
e 30 6
e 30 9
e 30 11
e 30 12
e 30 15
e 30 16
e 30 17
e 30 21
e 30 25
e 30 28
e 30 29
e 31 1
e 31 6
e 31 8
e 31 9
e 31 10
e 31 11
e 31 13
e 31 14
e 31 15
e 31 18
e 31 20
e 31 23
e 31 28
e 31 29
e 32 3
e 32 7
e 32 11
e 32 17
e 32 19
e 32 20
e 32 21
e 32 23
e 32 24
e 32 26
e 32 27
e 32 31
e 33 2
e 33 6
e 33 7
e 33 8
e 33 9
e 33 13
e 33 14
e 33 15
e 33 17
e 33 18
e 33 19
e 33 21
e 33 22
e 33 23
e 33 24
e 33 28
e 34 3
e 34 4
e 34 6
e 34 8
e 34 12
e 34 15
e 34 16
e 34 19
e 34 20
e 34 21
e 34 23
e 34 27
e 34 28
e 34 29
e 34 30
e 34 32
e 34 33
e 35 3
e 35 5
e 35 6
e 35 8
e 35 9
e 35 10
e 35 11
e 35 12
e 35 15
e 35 16
e 35 19
e 35 20
e 35 21
e 35 23
e 35 26
e 35 27
e 35 30
e 35 33
e 36 2
e 36 4
e 36 5
e 36 7
e 36 8
e 36 9
e 36 10
e 36 12
e 36 14
e 36 15
e 36 16
e 36 17
e 36 18
e 36 19
e 36 22
e 36 25
e 36 28
e 36 29
e 36 35
e 37 3
e 37 5
e 37 8
e 37 10
e 37 12
e 37 13
e 37 16
e 37 17
e 37 18
e 37 20
e 37 21
e 37 22
e 37 23
e 37 24
e 37 25
e 37 28
e 37 29
e 37 30
e 37 31
e 37 33
e 37 34
e 38 2
e 38 3
e 38 4
e 38 8
e 38 11
e 38 12
e 38 14
e 38 17
e 38 18
e 38 20
e 38 21
e 38 23
e 38 24
e 38 26
e 38 28
e 38 31
e 38 35
e 38 36
e 39 4
e 39 6
e 39 10
e 39 13
e 39 15
e 39 17
e 39 19
e 39 22
e 39 23
e 39 25
e 39 26
e 39 27
e 39 28
e 39 29
e 39 32
e 39 33
e 39 35
e 39 36
e 39 37
e 39 38
e 40 1
e 40 5
e 40 6
e 40 7
e 40 8
e 40 9
e 40 11
e 40 15
e 40 16
e 40 18
e 40 23
e 40 25
e 40 26
e 40 28
e 40 29
e 40 31
e 40 32
e 40 33
e 40 36
e 40 38
e 41 1
e 41 2
e 41 4
e 41 5
e 41 6
e 41 7
e 41 11
e 41 12
e 41 16
e 41 18
e 41 19
e 41 20
e 41 22
e 41 23
e 41 24
e 41 30
e 41 31
e 41 36
e 41 38
e 42 5
e 42 7
e 42 8
e 42 10
e 42 13
e 42 14
e 42 20
e 42 21
e 42 22
e 42 23
e 42 24
e 42 26
e 42 28
e 42 32
e 42 33
e 42 35
e 42 36
e 42 37
e 42 38
e 42 40
e 43 2
e 43 4
e 43 5
e 43 6
e 43 9
e 43 12
e 43 19
e 43 20
e 43 24
e 43 25
e 43 27
e 43 29
e 43 31
e 43 33
e 43 34
e 43 35
e 43 39
e 44 1
e 44 7
e 44 8
e 44 9
e 44 10
e 44 11
e 44 12
e 44 13
e 44 14
e 44 15
e 44 17
e 44 19
e 44 20
e 44 21
e 44 23
e 44 24
e 44 26
e 44 27
e 44 30
e 44 34
e 44 35
e 44 36
e 44 37
e 44 39
e 44 40
e 44 43
e 45 1
e 45 2
e 45 6
e 45 8
e 45 13
e 45 15
e 45 16
e 45 18
e 45 22
e 45 23
e 45 24
e 45 27
e 45 31
e 45 34
e 45 36
e 45 38
e 45 39
e 45 40
e 45 41
e 45 44
e 46 2
e 46 4
e 46 5
e 46 7
e 46 8
e 46 10
e 46 13
e 46 14
e 46 15
e 46 16
e 46 17
e 46 21
e 46 24
e 46 29
e 46 30
e 46 35
e 46 36
e 46 37
e 46 38
e 46 39
e 46 40
e 46 44
e 47 1
e 47 4
e 47 5
e 47 8
e 47 9
e 47 13
e 47 16
e 47 17
e 47 18
e 47 21
e 47 23
e 47 24
e 47 26
e 47 27
e 47 32
e 47 34
e 47 35
e 47 37
e 47 42
e 47 43
e 47 45
e 47 46
e 48 1
e 48 2
e 48 3
e 48 4
e 48 6
e 48 8
e 48 9
e 48 13
e 48 17
e 48 19
e 48 20
e 48 21
e 48 22
e 48 23
e 48 25
e 48 26
e 48 31
e 48 33
e 48 34
e 48 36
e 48 37
e 48 38
e 48 40
e 48 41
e 48 47
e 49 2
e 49 9
e 49 11
e 49 12
e 49 13
e 49 15
e 49 20
e 49 21
e 49 23
e 49 24
e 49 25
e 49 27
e 49 28
e 49 29
e 49 31
e 49 32
e 49 34
e 49 41
e 49 42
e 49 43
e 50 1
e 50 9
e 50 10
e 50 12
e 50 14
e 50 18
e 50 20
e 50 23
e 50 28
e 50 30
e 50 32
e 50 35
e 50 38
e 50 39
e 50 40
e 50 41
e 50 44
e 50 45
e 51 2
e 51 3
e 51 4
e 51 5
e 51 6
e 51 10
e 51 12
e 51 13
e 51 18
e 51 19
e 51 21
e 51 22
e 51 23
e 51 25
e 51 27
e 51 30
e 51 31
e 51 34
e 51 35
e 51 36
e 51 38
e 51 39
e 51 40
e 51 41
e 51 42
e 51 43
e 51 44
e 51 46
e 51 47
e 51 48
e 51 50
e 52 7
e 52 8
e 52 11
e 52 13
e 52 15
e 52 16
e 52 17
e 52 18
e 52 21
e 52 30
e 52 31
e 52 32
e 52 36
e 52 39
e 52 41
e 52 43
e 52 44
e 52 45
e 52 47
e 52 48
e 52 49
e 52 51
e 53 3
e 53 8
e 53 11
e 53 14
e 53 15
e 53 16
e 53 19
e 53 21
e 53 22
e 53 24
e 53 26
e 53 27
e 53 28
e 53 29
e 53 30
e 53 31
e 53 32
e 53 34
e 53 35
e 53 37
e 53 44
e 53 47
e 53 48
e 53 49
e 53 50
e 53 52
e 54 5
e 54 7
e 54 10
e 54 11
e 54 13
e 54 15
e 54 16
e 54 19
e 54 23
e 54 24
e 54 25
e 54 28
e 54 29
e 54 31
e 54 39
e 54 42
e 54 43
e 54 44
e 54 48
e 54 49
e 54 50
e 54 53
e 55 1
e 55 2
e 55 3
e 55 7
e 55 10
e 55 12
e 55 13
e 55 18
e 55 21
e 55 22
e 55 23
e 55 24
e 55 26
e 55 27
e 55 29
e 55 31
e 55 32
e 55 40
e 55 41
e 55 42
e 55 45
e 55 46
e 55 47
e 55 49
e 55 50
e 55 51
e 56 2
e 56 7
e 56 8
e 56 10
e 56 11
e 56 12
e 56 15
e 56 17
e 56 20
e 56 23
e 56 25
e 56 27
e 56 29
e 56 31
e 56 32
e 56 34
e 56 35
e 56 36
e 56 38
e 56 39
e 56 40
e 56 42
e 56 45
e 56 46
e 56 48
e 56 51
e 56 53
e 56 54
e 56 55
e 57 5
e 57 8
e 57 11
e 57 12
e 57 13
e 57 15
e 57 16
e 57 18
e 57 20
e 57 23
e 57 26
e 57 27
e 57 28
e 57 29
e 57 31
e 57 32
e 57 33
e 57 34
e 57 37
e 57 39
e 57 40
e 57 41
e 57 42
e 57 45
e 57 48
e 57 50
e 57 55
e 58 1
e 58 4
e 58 6
e 58 8
e 58 12
e 58 13
e 58 14
e 58 16
e 58 18
e 58 20
e 58 22
e 58 24
e 58 25
e 58 26
e 58 30
e 58 31
e 58 38
e 58 39
e 58 40
e 58 41
e 58 43
e 58 44
e 58 46
e 58 50
e 58 52
e 58 53
e 58 56
e 59 1
e 59 6
e 59 8
e 59 9
e 59 10
e 59 12
e 59 13
e 59 14
e 59 15
e 59 16
e 59 21
e 59 22
e 59 24
e 59 27
e 59 30
e 59 31
e 59 34
e 59 36
e 59 37
e 59 38
e 59 39
e 59 43
e 59 45
e 59 48
e 59 52
e 59 53
e 59 55
e 59 56
e 60 3
e 60 5
e 60 8
e 60 9
e 60 10
e 60 11
e 60 12
e 60 15
e 60 16
e 60 20
e 60 21
e 60 22
e 60 31
e 60 33
e 60 40
e 60 42
e 60 43
e 60 44
e 60 47
e 60 49
e 60 52
e 61 2
e 61 3
e 61 4
e 61 7
e 61 8
e 61 12
e 61 13
e 61 14
e 61 17
e 61 20
e 61 23
e 61 24
e 61 25
e 61 27
e 61 30
e 61 31
e 61 32
e 61 33
e 61 34
e 61 35
e 61 37
e 61 38
e 61 41
e 61 42
e 61 43
e 61 46
e 61 48
e 61 49
e 61 50
e 61 51
e 61 53
e 61 56
e 61 60
e 62 4
e 62 5
e 62 6
e 62 7
e 62 8
e 62 10
e 62 11
e 62 15
e 62 17
e 62 18
e 62 19
e 62 20
e 62 21
e 62 22
e 62 25
e 62 27
e 62 29
e 62 31
e 62 32
e 62 36
e 62 41
e 62 42
e 62 47
e 62 49
e 62 50
e 62 55
e 62 57
e 62 59
e 62 61
e 63 1
e 63 2
e 63 3
e 63 8
e 63 10
e 63 14
e 63 15
e 63 16
e 63 17
e 63 21
e 63 23
e 63 24
e 63 27
e 63 29
e 63 31
e 63 32
e 63 36
e 63 37
e 63 38
e 63 40
e 63 41
e 63 42
e 63 43
e 63 44
e 63 45
e 63 46
e 63 48
e 63 49
e 63 51
e 63 52
e 63 57
e 63 60
e 64 1
e 64 3
e 64 4
e 64 5
e 64 10
e 64 14
e 64 15
e 64 16
e 64 17
e 64 18
e 64 20
e 64 24
e 64 27
e 64 28
e 64 31
e 64 32
e 64 34
e 64 35
e 64 36
e 64 37
e 64 43
e 64 45
e 64 47
e 64 48
e 64 49
e 64 50
e 64 52
e 64 53
e 64 54
e 64 55
e 64 56
e 64 58
e 64 59
e 64 60
e 64 61
e 64 62
e 65 2
e 65 4
e 65 5
e 65 6
e 65 9
e 65 10
e 65 11
e 65 14
e 65 15
e 65 17
e 65 19
e 65 21
e 65 25
e 65 26
e 65 28
e 65 29
e 65 30
e 65 31
e 65 33
e 65 35
e 65 36
e 65 41
e 65 45
e 65 46
e 65 47
e 65 51
e 65 54
e 65 58
e 65 60
e 65 61
e 65 64
e 66 1
e 66 5
e 66 11
e 66 12
e 66 14
e 66 15
e 66 16
e 66 17
e 66 18
e 66 19
e 66 21
e 66 23
e 66 24
e 66 27
e 66 28
e 66 29
e 66 30
e 66 31
e 66 32
e 66 34
e 66 35
e 66 36
e 66 39
e 66 41
e 66 42
e 66 43
e 66 44
e 66 45
e 66 46
e 66 48
e 66 50
e 66 51
e 66 53
e 66 56
e 66 57
e 66 58
e 66 60
e 66 62
e 66 64
e 66 65
e 67 1
e 67 2
e 67 4
e 67 6
e 67 7
e 67 10
e 67 12
e 67 13
e 67 15
e 67 16
e 67 17
e 67 20
e 67 25
e 67 28
e 67 29
e 67 32
e 67 35
e 67 36
e 67 37
e 67 38
e 67 41
e 67 42
e 67 43
e 67 44
e 67 45
e 67 48
e 67 49
e 67 51
e 67 53
e 67 56
e 67 57
e 67 62
e 67 63
e 67 65
e 67 66
e 68 1
e 68 2
e 68 3
e 68 4
e 68 7
e 68 8
e 68 9
e 68 10
e 68 11
e 68 13
e 68 15
e 68 19
e 68 23
e 68 24
e 68 31
e 68 33
e 68 34
e 68 35
e 68 37
e 68 38
e 68 39
e 68 40
e 68 41
e 68 45
e 68 49
e 68 51
e 68 52
e 68 53
e 68 56
e 68 57
e 68 58
e 68 59
e 68 60
e 68 64
e 68 65
e 68 66
e 68 67
e 69 3
e 69 5
e 69 7
e 69 8
e 69 9
e 69 10
e 69 12
e 69 13
e 69 21
e 69 23
e 69 25
e 69 26
e 69 27
e 69 32
e 69 39
e 69 45
e 69 46
e 69 47
e 69 48
e 69 49
e 69 51
e 69 54
e 69 57
e 69 58
e 69 62
e 69 63
e 69 65
e 69 66
e 69 67
e 69 68
e 70 1
e 70 7
e 70 10
e 70 13
e 70 14
e 70 17
e 70 21
e 70 22
e 70 23
e 70 24
e 70 25
e 70 26
e 70 27
e 70 30
e 70 31
e 70 34
e 70 36
e 70 37
e 70 38
e 70 39
e 70 40
e 70 44
e 70 45
e 70 48
e 70 55
e 70 57
e 70 62
e 70 66
e 70 67
e 70 68
e 71 1
e 71 2
e 71 5
e 71 6
e 71 8
e 71 12
e 71 13
e 71 18
e 71 19
e 71 22
e 71 23
e 71 27
e 71 28
e 71 29
e 71 30
e 71 31
e 71 35
e 71 37
e 71 39
e 71 41
e 71 42
e 71 44
e 71 45
e 71 46
e 71 47
e 71 48
e 71 50
e 71 51
e 71 55
e 71 58
e 71 59
e 71 60
e 71 64
e 71 65
e 71 66
e 71 67
e 72 1
e 72 2
e 72 4
e 72 5
e 72 7
e 72 8
e 72 10
e 72 12
e 72 13
e 72 14
e 72 17
e 72 18
e 72 21
e 72 23
e 72 28
e 72 30
e 72 32
e 72 33
e 72 35
e 72 38
e 72 40
e 72 42
e 72 44
e 72 45
e 72 47
e 72 49
e 72 50
e 72 53
e 72 54
e 72 56
e 72 57
e 72 59
e 72 60
e 72 61
e 72 62
e 72 66
e 72 67
e 72 68
e 72 70
e 73 2
e 73 4
e 73 5
e 73 9
e 73 10
e 73 13
e 73 17
e 73 18
e 73 21
e 73 23
e 73 25
e 73 26
e 73 29
e 73 31
e 73 33
e 73 34
e 73 37
e 73 38
e 73 39
e 73 40
e 73 45
e 73 46
e 73 48
e 73 50
e 73 52
e 73 53
e 73 56
e 73 57
e 73 58
e 73 59
e 73 63
e 73 65
e 73 66
e 73 67
e 73 68
e 73 69
e 73 72
e 74 6
e 74 8
e 74 10
e 74 11
e 74 13
e 74 14
e 74 15
e 74 17
e 74 18
e 74 21
e 74 22
e 74 26
e 74 28
e 74 30
e 74 34
e 74 37
e 74 38
e 74 39
e 74 41
e 74 43
e 74 44
e 74 45
e 74 46
e 74 48
e 74 49
e 74 54
e 74 55
e 74 56
e 74 61
e 74 64
e 74 66
e 74 69
e 74 73
e 75 1
e 75 2
e 75 7
e 75 8
e 75 9
e 75 11
e 75 12
e 75 14
e 75 20
e 75 21
e 75 25
e 75 26
e 75 28
e 75 29
e 75 30
e 75 32
e 75 33
e 75 34
e 75 35
e 75 36
e 75 41
e 75 42
e 75 44
e 75 45
e 75 46
e 75 47
e 75 49
e 75 50
e 75 55
e 75 56
e 75 57
e 75 59
e 75 61
e 75 64
e 75 65
e 75 67
e 75 68
e 75 69
e 75 71
e 75 73
e 75 74
e 76 2
e 76 3
e 76 6
e 76 7
e 76 8
e 76 10
e 76 11
e 76 12
e 76 13
e 76 18
e 76 21
e 76 23
e 76 24
e 76 27
e 76 29
e 76 30
e 76 31
e 76 32
e 76 34
e 76 36
e 76 37
e 76 39
e 76 40
e 76 43
e 76 45
e 76 47
e 76 48
e 76 50
e 76 52
e 76 53
e 76 55
e 76 58
e 76 59
e 76 60
e 76 61
e 76 64
e 76 65
e 76 68
e 76 69
e 76 70
e 76 71
e 76 72
e 76 73
e 76 74
e 77 5
e 77 6
e 77 7
e 77 8
e 77 9
e 77 14
e 77 16
e 77 21
e 77 22
e 77 24
e 77 25
e 77 27
e 77 29
e 77 31
e 77 34
e 77 37
e 77 38
e 77 40
e 77 41
e 77 43
e 77 45
e 77 47
e 77 49
e 77 52
e 77 53
e 77 54
e 77 56
e 77 57
e 77 58
e 77 59
e 77 60
e 77 61
e 77 62
e 77 64
e 77 66
e 77 72
e 77 74
e 78 1
e 78 9
e 78 10
e 78 15
e 78 16
e 78 17
e 78 18
e 78 19
e 78 26
e 78 28
e 78 31
e 78 33
e 78 35
e 78 36
e 78 39
e 78 40
e 78 44
e 78 45
e 78 46
e 78 47
e 78 51
e 78 54
e 78 57
e 78 60
e 78 62
e 78 66
e 78 67
e 78 72
e 78 77
e 79 1
e 79 2
e 79 5
e 79 7
e 79 8
e 79 9
e 79 11
e 79 16
e 79 20
e 79 22
e 79 25
e 79 28
e 79 32
e 79 34
e 79 37
e 79 38
e 79 41
e 79 42
e 79 44
e 79 47
e 79 48
e 79 49
e 79 52
e 79 54
e 79 56
e 79 58
e 79 59
e 79 64
e 79 65
e 79 67
e 79 68
e 79 70
e 79 72
e 79 73
e 79 77
e 80 1
e 80 4
e 80 6
e 80 8
e 80 10
e 80 12
e 80 13
e 80 15
e 80 17
e 80 20
e 80 21
e 80 24
e 80 25
e 80 26
e 80 27
e 80 28
e 80 29
e 80 35
e 80 36
e 80 38
e 80 40
e 80 41
e 80 44
e 80 45
e 80 49
e 80 56
e 80 60
e 80 61
e 80 65
e 80 66
e 80 67
e 80 68
e 80 71
e 80 72
e 80 73
e 80 74
e 80 76
e 80 77
e 81 2
e 81 5
e 81 6
e 81 8
e 81 9
e 81 11
e 81 17
e 81 18
e 81 19
e 81 21
e 81 26
e 81 27
e 81 29
e 81 30
e 81 36
e 81 38
e 81 39
e 81 40
e 81 42
e 81 44
e 81 45
e 81 47
e 81 48
e 81 52
e 81 54
e 81 57
e 81 58
e 81 59
e 81 65
e 81 68
e 81 70
e 81 73
e 81 74
e 81 76
e 81 79
e 82 2
e 82 3
e 82 6
e 82 7
e 82 11
e 82 15
e 82 20
e 82 23
e 82 24
e 82 25
e 82 26
e 82 28
e 82 31
e 82 32
e 82 36
e 82 37
e 82 41
e 82 42
e 82 46
e 82 47
e 82 51
e 82 52
e 82 53
e 82 58
e 82 61
e 82 62
e 82 63
e 82 65
e 82 66
e 82 67
e 82 71
e 82 74
e 82 75
e 82 79
e 82 80
e 83 1
e 83 2
e 83 3
e 83 4
e 83 5
e 83 10
e 83 11
e 83 12
e 83 13
e 83 15
e 83 17
e 83 20
e 83 21
e 83 22
e 83 26
e 83 27
e 83 29
e 83 31
e 83 35
e 83 36
e 83 40
e 83 42
e 83 45
e 83 48
e 83 49
e 83 50
e 83 51
e 83 52
e 83 53
e 83 55
e 83 56
e 83 64
e 83 67
e 83 70
e 83 72
e 83 73
e 83 76
e 83 77
e 83 78
e 83 81
e 84 1
e 84 3
e 84 5
e 84 6
e 84 8
e 84 10
e 84 12
e 84 13
e 84 15
e 84 16
e 84 17
e 84 19
e 84 20
e 84 22
e 84 25
e 84 26
e 84 27
e 84 28
e 84 29
e 84 30
e 84 33
e 84 38
e 84 45
e 84 46
e 84 48
e 84 55
e 84 56
e 84 60
e 84 62
e 84 63
e 84 66
e 84 69
e 84 70
e 84 72
e 84 73
e 84 74
e 84 76
e 84 77
e 84 78
e 84 79
e 84 81
e 84 82
e 84 83
e 85 6
e 85 7
e 85 8
e 85 12
e 85 14
e 85 17
e 85 18
e 85 20
e 85 22
e 85 24
e 85 26
e 85 27
e 85 28
e 85 32
e 85 34
e 85 35
e 85 36
e 85 38
e 85 39
e 85 40
e 85 46
e 85 47
e 85 52
e 85 58
e 85 61
e 85 65
e 85 67
e 85 69
e 85 70
e 85 83
e 85 84
e 86 2
e 86 3
e 86 4
e 86 5
e 86 6
e 86 7
e 86 9
e 86 10
e 86 13
e 86 14
e 86 17
e 86 18
e 86 19
e 86 21
e 86 23
e 86 24
e 86 25
e 86 26
e 86 27
e 86 28
e 86 30
e 86 31
e 86 32
e 86 34
e 86 37
e 86 38
e 86 39
e 86 41
e 86 43
e 86 45
e 86 47
e 86 49
e 86 50
e 86 51
e 86 55
e 86 57
e 86 58
e 86 59
e 86 62
e 86 63
e 86 65
e 86 69
e 86 71
e 86 75
e 86 76
e 86 78
e 86 80
e 86 82
e 86 84
e 87 3
e 87 4
e 87 5
e 87 6
e 87 7
e 87 11
e 87 13
e 87 14
e 87 16
e 87 17
e 87 19
e 87 33
e 87 36
e 87 39
e 87 41
e 87 42
e 87 43
e 87 45
e 87 47
e 87 48
e 87 54
e 87 57
e 87 60
e 87 63
e 87 64
e 87 66
e 87 68
e 87 70
e 87 73
e 87 74
e 87 75
e 87 76
e 87 77
e 87 78
e 87 79
e 87 80
e 87 83
e 87 84
e 88 1
e 88 2
e 88 3
e 88 5
e 88 6
e 88 7
e 88 11
e 88 12
e 88 13
e 88 14
e 88 15
e 88 17
e 88 18
e 88 21
e 88 22
e 88 29
e 88 31
e 88 35
e 88 37
e 88 39
e 88 40
e 88 41
e 88 45
e 88 46
e 88 50
e 88 52
e 88 54
e 88 55
e 88 56
e 88 57
e 88 58
e 88 59
e 88 60
e 88 61
e 88 62
e 88 63
e 88 64
e 88 65
e 88 67
e 88 72
e 88 74
e 88 76
e 88 78
e 88 86
e 89 5
e 89 9
e 89 14
e 89 15
e 89 16
e 89 18
e 89 23
e 89 24
e 89 27
e 89 28
e 89 30
e 89 32
e 89 38
e 89 39
e 89 42
e 89 44
e 89 45
e 89 48
e 89 52
e 89 54
e 89 58
e 89 62
e 89 63
e 89 64
e 89 65
e 89 66
e 89 68
e 89 73
e 89 79
e 89 80
e 89 81
e 89 84
e 89 85
e 89 86
e 90 1
e 90 2
e 90 4
e 90 5
e 90 6
e 90 7
e 90 10
e 90 11
e 90 14
e 90 19
e 90 20
e 90 22
e 90 23
e 90 25
e 90 26
e 90 29
e 90 31
e 90 35
e 90 36
e 90 37
e 90 39
e 90 44
e 90 45
e 90 46
e 90 47
e 90 48
e 90 49
e 90 50
e 90 51
e 90 52
e 90 53
e 90 60
e 90 62
e 90 63
e 90 66
e 90 67
e 90 70
e 90 73
e 90 75
e 90 76
e 90 78
e 90 85
e 90 86
e 90 87
e 90 89
e 91 1
e 91 4
e 91 5
e 91 6
e 91 7
e 91 8
e 91 9
e 91 12
e 91 14
e 91 16
e 91 18
e 91 19
e 91 23
e 91 24
e 91 25
e 91 29
e 91 31
e 91 32
e 91 33
e 91 34
e 91 35
e 91 36
e 91 38
e 91 41
e 91 43
e 91 47
e 91 48
e 91 50
e 91 51
e 91 56
e 91 58
e 91 61
e 91 62
e 91 64
e 91 65
e 91 67
e 91 70
e 91 71
e 91 72
e 91 73
e 91 74
e 91 76
e 91 77
e 91 78
e 91 79
e 91 80
e 91 81
e 91 82
e 91 83
e 91 86
e 91 88
e 92 1
e 92 2
e 92 3
e 92 4
e 92 10
e 92 11
e 92 12
e 92 13
e 92 14
e 92 19
e 92 20
e 92 21
e 92 23
e 92 25
e 92 26
e 92 28
e 92 29
e 92 30
e 92 33
e 92 35
e 92 37
e 92 38
e 92 40
e 92 42
e 92 48
e 92 51
e 92 54
e 92 55
e 92 57
e 92 59
e 92 66
e 92 72
e 92 74
e 92 76
e 92 77
e 92 80
e 92 81
e 92 82
e 92 83
e 92 84
e 92 86
e 92 89
e 93 5
e 93 7
e 93 8
e 93 9
e 93 11
e 93 16
e 93 18
e 93 19
e 93 21
e 93 25
e 93 27
e 93 35
e 93 36
e 93 37
e 93 38
e 93 40
e 93 43
e 93 44
e 93 45
e 93 46
e 93 47
e 93 48
e 93 51
e 93 53
e 93 55
e 93 60
e 93 62
e 93 64
e 93 66
e 93 67
e 93 68
e 93 72
e 93 73
e 93 74
e 93 79
e 93 80
e 93 81
e 93 84
e 93 86
e 93 87
e 93 88
e 93 90
e 93 92
e 94 1
e 94 3
e 94 6
e 94 8
e 94 15
e 94 18
e 94 19
e 94 20
e 94 21
e 94 22
e 94 26
e 94 29
e 94 31
e 94 32
e 94 33
e 94 36
e 94 40
e 94 43
e 94 44
e 94 45
e 94 46
e 94 47
e 94 49
e 94 50
e 94 51
e 94 52
e 94 54
e 94 57
e 94 58
e 94 59
e 94 60
e 94 62
e 94 63
e 94 66
e 94 70
e 94 72
e 94 73
e 94 77
e 94 78
e 94 82
e 94 83
e 94 85
e 94 86
e 94 87
e 94 88
e 94 93
e 95 2
e 95 3
e 95 7
e 95 9
e 95 10
e 95 11
e 95 13
e 95 15
e 95 16
e 95 19
e 95 22
e 95 26
e 95 27
e 95 29
e 95 30
e 95 33
e 95 35
e 95 36
e 95 38
e 95 40
e 95 42
e 95 43
e 95 44
e 95 45
e 95 47
e 95 48
e 95 49
e 95 51
e 95 53
e 95 54
e 95 56
e 95 59
e 95 60
e 95 61
e 95 63
e 95 67
e 95 68
e 95 70
e 95 72
e 95 73
e 95 74
e 95 81
e 95 82
e 95 83
e 95 84
e 95 86
e 95 88
e 95 89
e 95 90
e 95 92
e 95 93
e 96 1
e 96 2
e 96 6
e 96 7
e 96 9
e 96 11
e 96 12
e 96 13
e 96 14
e 96 15
e 96 16
e 96 18
e 96 20
e 96 24
e 96 25
e 96 26
e 96 34
e 96 35
e 96 36
e 96 37
e 96 38
e 96 40
e 96 42
e 96 43
e 96 44
e 96 45
e 96 47
e 96 48
e 96 50
e 96 51
e 96 52
e 96 56
e 96 57
e 96 58
e 96 62
e 96 63
e 96 68
e 96 73
e 96 74
e 96 75
e 96 76
e 96 77
e 96 82
e 96 83
e 96 85
e 96 86
e 96 87
e 96 88
e 96 90
e 96 91
e 96 92
e 96 95
e 97 2
e 97 3
e 97 4
e 97 5
e 97 6
e 97 9
e 97 13
e 97 14
e 97 15
e 97 16
e 97 17
e 97 18
e 97 20
e 97 21
e 97 22
e 97 23
e 97 24
e 97 27
e 97 28
e 97 30
e 97 32
e 97 36
e 97 42
e 97 44
e 97 47
e 97 48
e 97 49
e 97 50
e 97 51
e 97 52
e 97 53
e 97 56
e 97 57
e 97 60
e 97 62
e 97 63
e 97 65
e 97 66
e 97 74
e 97 75
e 97 79
e 97 82
e 97 83
e 97 84
e 97 86
e 97 90
e 97 91
e 97 92
e 97 93
e 98 2
e 98 3
e 98 6
e 98 7
e 98 8
e 98 9
e 98 14
e 98 15
e 98 19
e 98 20
e 98 22
e 98 23
e 98 25
e 98 26
e 98 27
e 98 28
e 98 29
e 98 31
e 98 32
e 98 34
e 98 36
e 98 37
e 98 40
e 98 41
e 98 43
e 98 45
e 98 46
e 98 47
e 98 49
e 98 50
e 98 53
e 98 55
e 98 59
e 98 60
e 98 64
e 98 65
e 98 66
e 98 68
e 98 71
e 98 73
e 98 75
e 98 76
e 98 77
e 98 78
e 98 81
e 98 83
e 98 88
e 98 93
e 98 96
e 99 4
e 99 5
e 99 8
e 99 13
e 99 14
e 99 15
e 99 16
e 99 17
e 99 18
e 99 19
e 99 25
e 99 27
e 99 28
e 99 32
e 99 33
e 99 36
e 99 38
e 99 39
e 99 40
e 99 42
e 99 43
e 99 45
e 99 48
e 99 49
e 99 54
e 99 57
e 99 58
e 99 59
e 99 61
e 99 63
e 99 64
e 99 68
e 99 70
e 99 71
e 99 72
e 99 73
e 99 77
e 99 79
e 99 80
e 99 82
e 99 85
e 99 86
e 99 87
e 99 88
e 99 90
e 99 91
e 99 96
e 100 1
e 100 4
e 100 5
e 100 6
e 100 8
e 100 9
e 100 12
e 100 13
e 100 15
e 100 16
e 100 18
e 100 20
e 100 22
e 100 24
e 100 25
e 100 30
e 100 32
e 100 33
e 100 35
e 100 36
e 100 41
e 100 43
e 100 45
e 100 46
e 100 51
e 100 53
e 100 60
e 100 62
e 100 66
e 100 69
e 100 70
e 100 71
e 100 74
e 100 76
e 100 78
e 100 79
e 100 82
e 100 85
e 100 87
e 100 89
e 100 99
e 101 1
e 101 3
e 101 7
e 101 9
e 101 10
e 101 12
e 101 13
e 101 14
e 101 16
e 101 18
e 101 20
e 101 21
e 101 24
e 101 25
e 101 26
e 101 29
e 101 31
e 101 32
e 101 33
e 101 34
e 101 37
e 101 42
e 101 43
e 101 46
e 101 47
e 101 49
e 101 51
e 101 52
e 101 53
e 101 58
e 101 59
e 101 60
e 101 61
e 101 62
e 101 64
e 101 65
e 101 67
e 101 68
e 101 69
e 101 71
e 101 72
e 101 73
e 101 74
e 101 76
e 101 77
e 101 79
e 101 80
e 101 84
e 101 86
e 101 88
e 101 89
e 101 92
e 101 94
e 101 95
e 101 96
e 101 100
e 102 3
e 102 7
e 102 8
e 102 10
e 102 12
e 102 13
e 102 14
e 102 16
e 102 18
e 102 21
e 102 24
e 102 25
e 102 26
e 102 28
e 102 31
e 102 33
e 102 34
e 102 35
e 102 36
e 102 37
e 102 38
e 102 40
e 102 42
e 102 45
e 102 46
e 102 49
e 102 54
e 102 55
e 102 56
e 102 57
e 102 59
e 102 60
e 102 61
e 102 63
e 102 64
e 102 65
e 102 67
e 102 68
e 102 70
e 102 72
e 102 75
e 102 79
e 102 81
e 102 83
e 102 86
e 102 89
e 102 92
e 102 97
e 102 98
e 103 1
e 103 4
e 103 5
e 103 7
e 103 10
e 103 11
e 103 12
e 103 16
e 103 19
e 103 20
e 103 21
e 103 24
e 103 26
e 103 30
e 103 31
e 103 34
e 103 38
e 103 39
e 103 41
e 103 43
e 103 46
e 103 47
e 103 49
e 103 51
e 103 53
e 103 55
e 103 57
e 103 59
e 103 60
e 103 62
e 103 65
e 103 66
e 103 67
e 103 68
e 103 69
e 103 70
e 103 72
e 103 74
e 103 75
e 103 76
e 103 77
e 103 78
e 103 79
e 103 84
e 103 88
e 103 89
e 103 91
e 103 95
e 103 101
e 104 1
e 104 2
e 104 9
e 104 10
e 104 11
e 104 13
e 104 16
e 104 19
e 104 22
e 104 23
e 104 24
e 104 26
e 104 28
e 104 29
e 104 30
e 104 31
e 104 33
e 104 34
e 104 38
e 104 39
e 104 41
e 104 42
e 104 45
e 104 48
e 104 49
e 104 50
e 104 51
e 104 52
e 104 54
e 104 55
e 104 56
e 104 58
e 104 59
e 104 62
e 104 63
e 104 65
e 104 67
e 104 69
e 104 72
e 104 76
e 104 77
e 104 78
e 104 79
e 104 80
e 104 82
e 104 85
e 104 88
e 104 90
e 104 91
e 104 93
e 104 97
e 104 99
e 104 100
e 104 101
e 104 103
e 105 2
e 105 4
e 105 5
e 105 7
e 105 8
e 105 13
e 105 14
e 105 15
e 105 19
e 105 22
e 105 24
e 105 30
e 105 31
e 105 32
e 105 34
e 105 35
e 105 39
e 105 40
e 105 42
e 105 44
e 105 45
e 105 46
e 105 48
e 105 49
e 105 52
e 105 53
e 105 54
e 105 56
e 105 58
e 105 59
e 105 65
e 105 66
e 105 67
e 105 68
e 105 69
e 105 70
e 105 71
e 105 72
e 105 73
e 105 74
e 105 76
e 105 80
e 105 82
e 105 84
e 105 85
e 105 87
e 105 88
e 105 90
e 105 91
e 105 92
e 105 95
e 105 96
e 105 97
e 105 98
e 105 99
e 105 101
e 105 103
e 105 104
e 106 1
e 106 4
e 106 5
e 106 6
e 106 7
e 106 8
e 106 10
e 106 11
e 106 17
e 106 19
e 106 21
e 106 22
e 106 24
e 106 26
e 106 27
e 106 28
e 106 29
e 106 35
e 106 36
e 106 38
e 106 40
e 106 44
e 106 45
e 106 47
e 106 48
e 106 49
e 106 51
e 106 53
e 106 54
e 106 55
e 106 56
e 106 58
e 106 59
e 106 61
e 106 62
e 106 66
e 106 67
e 106 69
e 106 72
e 106 75
e 106 80
e 106 81
e 106 82
e 106 83
e 106 84
e 106 85
e 106 86
e 106 87
e 106 88
e 106 89
e 106 90
e 106 91
e 106 93
e 106 94
e 106 98
e 106 104
e 106 105
e 107 5
e 107 6
e 107 9
e 107 18
e 107 21
e 107 23
e 107 24
e 107 27
e 107 33
e 107 35
e 107 41
e 107 42
e 107 43
e 107 45
e 107 49
e 107 52
e 107 57
e 107 60
e 107 62
e 107 63
e 107 67
e 107 69
e 107 70
e 107 71
e 107 72
e 107 73
e 107 74
e 107 78
e 107 79
e 107 80
e 107 81
e 107 82
e 107 83
e 107 84
e 107 87
e 107 88
e 107 89
e 107 90
e 107 96
